min: c;

c = 3.44809174206063 * u5_t4_h2 + 3.44809174206063 * u5_t7_h2 + 3.1109221117043 * u5_t4_h3 + 3.1109221117043 * u5_t7_h3 + 2.72915879881116 * u5_t1_h4 + 2.72915879881116 * u5_t3_h4 + 2.72915879881116 * u5_t4_h4 + 2.72915879881116 * u5_t7_h4 + 3.32177827458862 * u5_t1_h5 + 3.32177827458862 * u5_t3_h5 + 3.32177827458862 * u5_t4_h5 + 3.32177827458862 * u5_t7_h5 + 3.67400916118219 * u5_t1_h6 + 3.67400916118219 * u5_t3_h6 + 3.67400916118219 * u5_t4_h6 + 3.67400916118219 * u5_t6_h6 + 3.67400916118219 * u5_t7_h6 + 4.37250280926239 * u5_t1_h7 + 4.37250280926239 * u5_t3_h7 + 4.37250280926239 * u5_t4_h7 + 4.37250280926239 * u5_t6_h7 + 5.50336706107611 * u5_t1_h8 + 5.50336706107611 * u5_t3_h8 + 5.50336706107611 * u5_t4_h8 + 5.50336706107611 * u5_t6_h8 + 4.581759070143 * u5_t1_h9 + 4.581759070143 * u5_t3_h9 + 4.581759070143 * u5_t4_h9 + 4.581759070143 * u5_t6_h9 + 5.17093649061197 * u5_t1_h10 + 5.17093649061197 * u5_t3_h10 + 5.17093649061197 * u5_t4_h10 + 5.17093649061197 * u5_t6_h10 + 4.1382096664453 * u5_t1_h11 + 4.1382096664453 * u5_t3_h11 + 4.1382096664453 * u5_t4_h11 + 4.1382096664453 * u5_t6_h11 + 6.5197703549867 * u5_t1_h12 + 6.5197703549867 * u5_t3_h12 + 6.5197703549867 * u5_t4_h12 + 6.5197703549867 * u5_t6_h12 + 4.73900549942509 * u5_t1_h13 + 4.73900549942509 * u5_t3_h13 + 4.73900549942509 * u5_t4_h13 + 4.73900549942509 * u5_t6_h13 + 4.73900549942509 * u5_t8_h13 + 4.97386202874013 * u5_t1_h14 + 4.97386202874013 * u5_t3_h14 + 4.97386202874013 * u5_t4_h14 + 4.97386202874013 * u5_t6_h14 + 4.97386202874013 * u5_t8_h14 + 5.84840614464644 * u5_t1_h15 + 5.84840614464644 * u5_t3_h15 + 5.84840614464644 * u5_t4_h15 + 5.84840614464644 * u5_t6_h15 + 5.84840614464644 * u5_t8_h15 + 5.84840614464644 * u5_t9_h15 + 5.87615207226162 * u5_t1_h16 + 5.87615207226162 * u5_t3_h16 + 5.87615207226162 * u5_t4_h16 + 5.87615207226162 * u5_t5_h16 + 5.87615207226162 * u5_t6_h16 + 5.87615207226162 * u5_t8_h16 + 5.87615207226162 * u5_t9_h16 + 6.62374009545657 * u5_t1_h17 + 6.62374009545657 * u5_t5_h17 + 6.62374009545657 * u5_t6_h17 + 6.62374009545657 * u5_t8_h17 + 6.62374009545657 * u5_t9_h17 + 6.62374009545657 * u5_t10_h17 + 5.98260044018926 * u5_t1_h18 + 5.98260044018926 * u5_t2_h18 + 5.98260044018926 * u5_t5_h18 + 5.98260044018926 * u5_t6_h18 + 5.98260044018926 * u5_t9_h18 + 5.98260044018926 * u5_t10_h18 + 5.7953605462694 * u5_t1_h19 + 5.7953605462694 * u5_t2_h19 + 5.7953605462694 * u5_t5_h19 + 5.7953605462694 * u5_t9_h19 + 5.7953605462694 * u5_t10_h19 + 5.7415650228133 * u5_t1_h20 + 5.7415650228133 * u5_t2_h20 + 5.7415650228133 * u5_t5_h20 + 5.7415650228133 * u5_t9_h20 + 5.7415650228133 * u5_t10_h20 + 5.43088551145452 * u5_t2_h21 + 5.43088551145452 * u5_t5_h21 + 5.43088551145452 * u5_t9_h21 + 5.43088551145452 * u5_t10_h21 + 5.28031490464546 * u5_t2_h22 + 5.28031490464546 * u5_t5_h22 + 5.28031490464546 * u5_t9_h22 + 5.28031490464546 * u5_t10_h22 + 4.97947585053491 * u5_t5_h23 + 4.97947585053491 * u5_t9_h23 + 4.97947585053491 * u5_t10_h23;
0 <= u5_t1_h4 <= 1;
0 <= u5_t1_h5 <= 1;
0 <= u5_t1_h6 <= 1;
0 <= u5_t1_h7 <= 1;
0 <= u5_t1_h8 <= 1;
0 <= u5_t1_h9 <= 1;
0 <= u5_t1_h10 <= 1;
0 <= u5_t1_h11 <= 1;
0 <= u5_t1_h12 <= 1;
0 <= u5_t1_h13 <= 1;
0 <= u5_t1_h14 <= 1;
0 <= u5_t1_h15 <= 1;
0 <= u5_t1_h16 <= 1;
0 <= u5_t1_h17 <= 1;
0 <= u5_t1_h18 <= 1;
0 <= u5_t1_h19 <= 1;
0 <= u5_t1_h20 <= 1;
u5_t1_h4 + u5_t1_h5 + u5_t1_h6 + u5_t1_h7 + u5_t1_h8 + u5_t1_h9 + u5_t1_h10 + u5_t1_h11 + u5_t1_h12 + u5_t1_h13 + u5_t1_h14 + u5_t1_h15 + u5_t1_h16 + u5_t1_h17 + u5_t1_h18 + u5_t1_h19 + u5_t1_h20 = 1;
0 <= u5_t2_h18 <= 1;
0 <= u5_t2_h19 <= 1;
0 <= u5_t2_h20 <= 1;
0 <= u5_t2_h21 <= 1;
0 <= u5_t2_h22 <= 1;
u5_t2_h18 + u5_t2_h19 + u5_t2_h20 + u5_t2_h21 + u5_t2_h22 = 3;
0 <= u5_t3_h4 <= 1;
0 <= u5_t3_h5 <= 1;
0 <= u5_t3_h6 <= 1;
0 <= u5_t3_h7 <= 1;
0 <= u5_t3_h8 <= 1;
0 <= u5_t3_h9 <= 1;
0 <= u5_t3_h10 <= 1;
0 <= u5_t3_h11 <= 1;
0 <= u5_t3_h12 <= 1;
0 <= u5_t3_h13 <= 1;
0 <= u5_t3_h14 <= 1;
0 <= u5_t3_h15 <= 1;
0 <= u5_t3_h16 <= 1;
u5_t3_h4 + u5_t3_h5 + u5_t3_h6 + u5_t3_h7 + u5_t3_h8 + u5_t3_h9 + u5_t3_h10 + u5_t3_h11 + u5_t3_h12 + u5_t3_h13 + u5_t3_h14 + u5_t3_h15 + u5_t3_h16 = 1;
0 <= u5_t4_h2 <= 1;
0 <= u5_t4_h3 <= 1;
0 <= u5_t4_h4 <= 1;
0 <= u5_t4_h5 <= 1;
0 <= u5_t4_h6 <= 1;
0 <= u5_t4_h7 <= 1;
0 <= u5_t4_h8 <= 1;
0 <= u5_t4_h9 <= 1;
0 <= u5_t4_h10 <= 1;
0 <= u5_t4_h11 <= 1;
0 <= u5_t4_h12 <= 1;
0 <= u5_t4_h13 <= 1;
0 <= u5_t4_h14 <= 1;
0 <= u5_t4_h15 <= 1;
0 <= u5_t4_h16 <= 1;
u5_t4_h2 + u5_t4_h3 + u5_t4_h4 + u5_t4_h5 + u5_t4_h6 + u5_t4_h7 + u5_t4_h8 + u5_t4_h9 + u5_t4_h10 + u5_t4_h11 + u5_t4_h12 + u5_t4_h13 + u5_t4_h14 + u5_t4_h15 + u5_t4_h16 = 3;
0 <= u5_t5_h16 <= 1;
0 <= u5_t5_h17 <= 1;
0 <= u5_t5_h18 <= 1;
0 <= u5_t5_h19 <= 1;
0 <= u5_t5_h20 <= 1;
0 <= u5_t5_h21 <= 1;
0 <= u5_t5_h22 <= 1;
0 <= u5_t5_h23 <= 1;
u5_t5_h16 + u5_t5_h17 + u5_t5_h18 + u5_t5_h19 + u5_t5_h20 + u5_t5_h21 + u5_t5_h22 + u5_t5_h23 = 2;
0 <= u5_t6_h6 <= 1;
0 <= u5_t6_h7 <= 1;
0 <= u5_t6_h8 <= 1;
0 <= u5_t6_h9 <= 1;
0 <= u5_t6_h10 <= 1;
0 <= u5_t6_h11 <= 1;
0 <= u5_t6_h12 <= 1;
0 <= u5_t6_h13 <= 1;
0 <= u5_t6_h14 <= 1;
0 <= u5_t6_h15 <= 1;
0 <= u5_t6_h16 <= 1;
0 <= u5_t6_h17 <= 1;
0 <= u5_t6_h18 <= 1;
u5_t6_h6 + u5_t6_h7 + u5_t6_h8 + u5_t6_h9 + u5_t6_h10 + u5_t6_h11 + u5_t6_h12 + u5_t6_h13 + u5_t6_h14 + u5_t6_h15 + u5_t6_h16 + u5_t6_h17 + u5_t6_h18 = 2;
0 <= u5_t7_h2 <= 1;
0 <= u5_t7_h3 <= 1;
0 <= u5_t7_h4 <= 1;
0 <= u5_t7_h5 <= 1;
0 <= u5_t7_h6 <= 1;
u5_t7_h2 + u5_t7_h3 + u5_t7_h4 + u5_t7_h5 + u5_t7_h6 = 1;
0 <= u5_t8_h13 <= 1;
0 <= u5_t8_h14 <= 1;
0 <= u5_t8_h15 <= 1;
0 <= u5_t8_h16 <= 1;
0 <= u5_t8_h17 <= 1;
u5_t8_h13 + u5_t8_h14 + u5_t8_h15 + u5_t8_h16 + u5_t8_h17 = 3;
0 <= u5_t9_h15 <= 1;
0 <= u5_t9_h16 <= 1;
0 <= u5_t9_h17 <= 1;
0 <= u5_t9_h18 <= 1;
0 <= u5_t9_h19 <= 1;
0 <= u5_t9_h20 <= 1;
0 <= u5_t9_h21 <= 1;
0 <= u5_t9_h22 <= 1;
0 <= u5_t9_h23 <= 1;
u5_t9_h15 + u5_t9_h16 + u5_t9_h17 + u5_t9_h18 + u5_t9_h19 + u5_t9_h20 + u5_t9_h21 + u5_t9_h22 + u5_t9_h23 = 1;
0 <= u5_t10_h17 <= 1;
0 <= u5_t10_h18 <= 1;
0 <= u5_t10_h19 <= 1;
0 <= u5_t10_h20 <= 1;
0 <= u5_t10_h21 <= 1;
0 <= u5_t10_h22 <= 1;
0 <= u5_t10_h23 <= 1;
u5_t10_h17 + u5_t10_h18 + u5_t10_h19 + u5_t10_h20 + u5_t10_h21 + u5_t10_h22 + u5_t10_h23 = 1;
